NAME : A-n32-k5
COMMENT : (Augerat et al, No of trucks: 3, Optimal value: 784)
TYPE : CVRP
DIMENSION : 6
EDGE_WEIGHT_TYPE : EUC_2D
CAPACITY : 100
NODE_COORD_SECTION
 1 82 76
 2 96 44
 3 50 5
 4 49 8
 5 13 7
 6 29 89
DEMAND_SECTION
1 0
2 19
3 21
4 6
5 19
6 7
DEPOT_SECTION
 1
 -1
EOF